Instance Name : r112
Date : 2022-07-18
Solution
Route 1 : 28 76 79 78 34 35 71 65 66 20 1
Route 2 : 69 51 9 81 33 3 29 24 25 55 54
Route 3 : 53 40 26 12 80 68 77 50
Route 4 : 88 7 19 64 49 36 46 47 48
Route 5 : 59 61 16 86 38 14 44 91 100 37 96
Route 6 : 52 18 83 82 8 45 17 84 5 60 89
Route 7 : 27 31 70 30 32 90 63 11 62 10
Route 8 : 72 73 41 22 74 75 56 23 67 39 4
Route 9 : 21 2 57 15 43 42 87 97 13 58
Route 10 : 6 99 93 85 98 92 95 94
